679,1094,1778,1530,1219,285,628,1020,1580,1466,1754,1806,400,938,1081,1511,148,1635,196,1309,1512,693,468,778,242,1119,608,959,1358,739,1507,1439,575,1542,320,658,1645,1097,328,1759,1473,857,1977,1355,392,1106,1255,1736,1086,895,1652,562